c 
c U(n,d) graph
c graph gen seed     : 6101784
c number of vertices : 60
c max number of edges: 1770
c Euclidean distance : 0.400000
c data structure     : sparse
c
c           Graph Stats
c number of vertices  : 60
c nonisolated vertices: 60
c number of edges     : 596
c edge density        : 0.336723
c max degree          : 31
c avg degree          : 19.87
c min degree          : 8
p col 60 596
e 1 60
e 1 51
e 1 44
e 1 25
e 1 19
e 1 13
e 1 11
e 1 6
e 2 58
e 2 57
e 2 55
e 2 54
e 2 53
e 2 52
e 2 50
e 2 49
e 2 48
e 2 46
e 2 45
e 2 42
e 2 40
e 2 37
e 2 35
e 2 31
e 2 30
e 2 28
e 2 24
e 2 23
e 2 21
e 2 19
e 2 17
e 2 16
e 2 15
e 2 14
e 2 9
e 2 8
e 2 7
e 2 4
e 3 59
e 3 57
e 3 56
e 3 53
e 3 45
e 3 42
e 3 41
e 3 36
e 3 32
e 3 26
e 3 24
e 3 20
e 3 15
e 3 10
e 3 7
e 3 5
e 3 4
e 4 59
e 4 58
e 4 57
e 4 56
e 4 53
e 4 45
e 4 42
e 4 41
e 4 40
e 4 36
e 4 35
e 4 32
e 4 31
e 4 30
e 4 26
e 4 24
e 4 23
e 4 20
e 4 15
e 4 14
e 4 10
e 4 8
e 4 7
e 4 5
e 5 59
e 5 57
e 5 53
e 5 41
e 5 40
e 5 36
e 5 30
e 5 26
e 5 24
e 5 20
e 5 15
e 5 14
e 5 10
e 5 8
e 5 7
e 6 60
e 6 55
e 6 51
e 6 44
e 6 37
e 6 25
e 6 19
e 6 13
e 6 11
e 7 59
e 7 58
e 7 57
e 7 56
e 7 53
e 7 52
e 7 45
e 7 42
e 7 41
e 7 36
e 7 35
e 7 32
e 7 31
e 7 26
e 7 24
e 7 23
e 7 20
e 7 17
e 7 15
e 7 14
e 7 10
e 7 8
e 8 59
e 8 58
e 8 57
e 8 55
e 8 54
e 8 53
e 8 50
e 8 49
e 8 48
e 8 46
e 8 43
e 8 42
e 8 40
e 8 39
e 8 37
e 8 35
e 8 34
e 8 33
e 8 31
e 8 30
e 8 29
e 8 24
e 8 23
e 8 21
e 8 16
e 8 15
e 8 14
e 9 58
e 9 56
e 9 55
e 9 52
e 9 47
e 9 45
e 9 42
e 9 37
e 9 35
e 9 32
e 9 31
e 9 28
e 9 27
e 9 24
e 9 23
e 9 22
e 9 19
e 9 18
e 9 17
e 10 59
e 10 57
e 10 56
e 10 53
e 10 45
e 10 42
e 10 41
e 10 36
e 10 32
e 10 26
e 10 24
e 10 20
e 10 15
e 11 60
e 11 55
e 11 54
e 11 51
e 11 49
e 11 48
e 11 44
e 11 37
e 11 29
e 11 25
e 11 19
e 11 13
e 12 54
e 12 50
e 12 46
e 12 43
e 12 40
e 12 39
e 12 38
e 12 34
e 12 33
e 12 30
e 12 29
e 12 21
e 12 16
e 12 14
e 13 60
e 13 55
e 13 54
e 13 51
e 13 49
e 13 48
e 13 44
e 13 37
e 13 25
e 13 19
e 14 59
e 14 58
e 14 57
e 14 53
e 14 50
e 14 49
e 14 48
e 14 46
e 14 43
e 14 40
e 14 39
e 14 38
e 14 34
e 14 33
e 14 31
e 14 30
e 14 29
e 14 26
e 14 23
e 14 21
e 14 16
e 14 15
e 15 59
e 15 58
e 15 57
e 15 53
e 15 50
e 15 46
e 15 43
e 15 42
e 15 41
e 15 40
e 15 36
e 15 35
e 15 33
e 15 32
e 15 31
e 15 30
e 15 26
e 15 24
e 15 23
e 15 21
e 15 16
e 16 58
e 16 55
e 16 54
e 16 53
e 16 50
e 16 49
e 16 48
e 16 46
e 16 43
e 16 40
e 16 39
e 16 38
e 16 37
e 16 34
e 16 33
e 16 31
e 16 30
e 16 29
e 16 25
e 16 23
e 16 21
e 17 58
e 17 56
e 17 55
e 17 52
e 17 47
e 17 45
e 17 42
e 17 37
e 17 35
e 17 32
e 17 31
e 17 28
e 17 27
e 17 24
e 17 23
e 17 22
e 17 19
e 17 18
e 18 56
e 18 52
e 18 47
e 18 45
e 18 42
e 18 35
e 18 32
e 18 28
e 18 27
e 18 22
e 19 60
e 19 58
e 19 55
e 19 54
e 19 51
e 19 49
e 19 48
e 19 44
e 19 37
e 19 35
e 19 31
e 19 25
e 19 23
e 20 59
e 20 57
e 20 56
e 20 41
e 20 36
e 20 32
e 20 26
e 20 24
e 21 57
e 21 55
e 21 54
e 21 53
e 21 50
e 21 49
e 21 48
e 21 46
e 21 43
e 21 40
e 21 39
e 21 38
e 21 34
e 21 33
e 21 30
e 21 29
e 21 23
e 22 56
e 22 52
e 22 47
e 22 45
e 22 42
e 22 35
e 22 32
e 22 28
e 22 27
e 22 24
e 23 58
e 23 57
e 23 55
e 23 54
e 23 53
e 23 52
e 23 50
e 23 49
e 23 48
e 23 46
e 23 45
e 23 42
e 23 40
e 23 37
e 23 35
e 23 32
e 23 31
e 23 30
e 23 28
e 23 24
e 24 59
e 24 58
e 24 57
e 24 56
e 24 53
e 24 52
e 24 47
e 24 45
e 24 42
e 24 41
e 24 36
e 24 35
e 24 32
e 24 31
e 24 28
e 24 26
e 25 60
e 25 55
e 25 54
e 25 51
e 25 49
e 25 48
e 25 44
e 25 37
e 25 29
e 26 59
e 26 57
e 26 53
e 26 41
e 26 40
e 26 36
e 26 32
e 26 30
e 27 52
e 27 47
e 27 45
e 27 35
e 27 28
e 28 58
e 28 56
e 28 52
e 28 47
e 28 45
e 28 42
e 28 37
e 28 35
e 28 32
e 28 31
e 29 55
e 29 54
e 29 50
e 29 49
e 29 48
e 29 46
e 29 43
e 29 39
e 29 38
e 29 34
e 29 33
e 29 30
e 30 59
e 30 57
e 30 53
e 30 50
e 30 46
e 30 43
e 30 40
e 30 39
e 30 38
e 30 34
e 30 33
e 31 58
e 31 57
e 31 56
e 31 55
e 31 53
e 31 52
e 31 49
e 31 48
e 31 45
e 31 42
e 31 37
e 31 35
e 31 32
e 32 58
e 32 57
e 32 56
e 32 53
e 32 52
e 32 47
e 32 45
e 32 42
e 32 41
e 32 36
e 32 35
e 33 57
e 33 53
e 33 50
e 33 46
e 33 43
e 33 40
e 33 39
e 33 38
e 33 34
e 34 54
e 34 50
e 34 46
e 34 43
e 34 40
e 34 39
e 34 38
e 35 58
e 35 56
e 35 55
e 35 53
e 35 52
e 35 49
e 35 47
e 35 45
e 35 42
e 35 37
e 35 36
e 36 59
e 36 57
e 36 56
e 36 53
e 36 45
e 36 42
e 36 41
e 37 60
e 37 58
e 37 55
e 37 54
e 37 52
e 37 51
e 37 49
e 37 48
e 37 42
e 38 50
e 38 46
e 38 43
e 38 40
e 38 39
e 39 54
e 39 50
e 39 49
e 39 48
e 39 46
e 39 43
e 39 40
e 40 59
e 40 57
e 40 53
e 40 50
e 40 46
e 40 43
e 41 59
e 41 57
e 41 56
e 41 53
e 41 42
e 42 58
e 42 57
e 42 56
e 42 53
e 42 52
e 42 47
e 42 45
e 43 57
e 43 53
e 43 50
e 43 46
e 44 60
e 44 51
e 45 58
e 45 56
e 45 52
e 45 47
e 46 59
e 46 57
e 46 55
e 46 54
e 46 53
e 46 50
e 46 49
e 46 48
e 47 56
e 47 52
e 48 58
e 48 55
e 48 54
e 48 51
e 48 50
e 48 49
e 49 58
e 49 55
e 49 54
e 49 50
e 50 59
e 50 57
e 50 54
e 50 53
e 51 60
e 51 55
e 52 58
e 52 56
e 52 55
e 53 59
e 53 58
e 53 57
e 54 55
e 55 60
e 55 58
e 56 58
e 57 59
e 57 58
